z1,z2,z3,nondominated
2,6,5,0
5,7,1,0
1,7,6,0
1,8,6,0
6,2,5,0
2,7,5,0
2,7,4,0
2,6,5,0
7,1,6,0
4,5,3,0
4,3,6,0
9,2,4,0
6,2,5,0
2,6,6,0
3,4,5,0
3,3,9,0
2,6,6,0
5,2,6,0
2,6,5,0
3,7,3,0
5,5,2,0
7,1,6,0
6,1,6,0
3,4,5,0
7,1,8,0
3,7,3,0
8,6,1,0
7,1,8,0
4,2,9,0
7,3,3,0
2,4,8,0
6,6,2,0
2,5,5,0
7,1,7,0
6,6,2,0
9,2,4,0
1,1,1,0
1,1,1,0
1,1,1,0
1,1,1,0
1,1,1,0
1,1,1,0
